NAME : mcpfd
COMMENT : file for mcpfd test
TYPE : ATSP
DIMENSION : 40
EDGE_WEIGHT_TYPE : EXPLICIT
EDGE_WEIGHT_FORMAT : FULL_MATRIX
EDGE_WEIGHT_SECTION
999999 999999 999999 999999 999999 999999 999999 999999 999999 999999 1027 999999 999999 999999 999999 999999 999999 999999 999999 999999 999999 999999 999999 999999 999999 999999 999999 999999 999999 1028 -1000 999999 999999 999999 999999 999999 999999 999999 999999 999999 
999999 999999 999999 999999 999999 999999 999999 999999 999999 999999 999999 -1000 1034 999999 999999 999999 999999 999999 999999 999999 999999 999999 999999 999999 999999 999999 999999 999999 999999 999999 999999 1037 999999 999999 999999 999999 999999 999999 999999 999999 
999999 999999 999999 999999 999999 999999 999999 999999 999999 999999 999999 999999 999999 1022 1023 999999 999999 999999 999999 999999 999999 999999 999999 999999 999999 999999 999999 999999 999999 999999 999999 999999 -1000 999999 999999 999999 999999 999999 999999 999999 
999999 999999 999999 999999 999999 999999 999999 999999 999999 999999 999999 999999 999999 999999 999999 1047 -1000 999999 999999 999999 999999 999999 999999 999999 999999 999999 999999 999999 999999 999999 999999 999999 999999 1028 999999 999999 999999 999999 999999 999999 
999999 999999 999999 999999 999999 999999 999999 999999 999999 999999 999999 999999 999999 999999 999999 999999 999999 1025 -1000 999999 999999 999999 999999 999999 999999 999999 999999 999999 999999 999999 999999 999999 999999 999999 1031 999999 999999 999999 999999 999999 
999999 999999 999999 999999 999999 999999 999999 999999 999999 999999 999999 999999 999999 999999 999999 999999 999999 999999 999999 1033 -1000 999999 999999 999999 999999 999999 999999 999999 999999 999999 999999 999999 999999 999999 999999 1028 999999 999999 999999 999999 
999999 999999 999999 999999 999999 999999 999999 999999 999999 999999 999999 999999 999999 999999 999999 999999 999999 999999 999999 999999 999999 1011 1002 999999 999999 999999 999999 999999 999999 999999 999999 999999 999999 999999 999999 999999 -1000 999999 999999 999999 
999999 999999 999999 999999 999999 999999 999999 999999 999999 999999 999999 999999 999999 999999 999999 999999 999999 999999 999999 999999 999999 999999 999999 -1000 1038 999999 999999 999999 999999 999999 999999 999999 999999 999999 999999 999999 999999 1014 999999 999999 
999999 999999 999999 999999 999999 999999 999999 999999 999999 999999 999999 999999 999999 999999 999999 999999 999999 999999 999999 999999 999999 999999 999999 999999 999999 -1000 1012 999999 999999 999999 999999 999999 999999 999999 999999 999999 999999 999999 1033 999999 
999999 999999 999999 999999 999999 999999 999999 999999 999999 999999 999999 999999 999999 999999 999999 999999 999999 999999 999999 999999 999999 999999 999999 999999 999999 999999 999999 1009 -1000 999999 999999 999999 999999 999999 999999 999999 999999 999999 999999 1022 
999999 999999 999999 999999 999999 999999 999999 999999 999999 999999 999999 0 -1000 999999 999999 999999 999999 999999 999999 999999 999999 999999 999999 999999 999999 999999 999999 999999 999999 999999 999999 1031 999999 999999 999999 999999 999999 999999 999999 999999 
999999 999999 999999 999999 999999 999999 999999 999999 999999 999999 0 999999 999999 999999 999999 999999 999999 999999 999999 999999 999999 999999 999999 999999 999999 999999 999999 999999 999999 1015 1031 999999 999999 999999 999999 999999 999999 999999 999999 999999 
999999 999999 999999 999999 999999 999999 999999 999999 999999 999999 999999 999999 999999 0 1043 999999 999999 999999 999999 999999 999999 999999 999999 999999 999999 999999 999999 999999 999999 999999 999999 999999 1021 999999 999999 999999 999999 999999 999999 999999 
999999 999999 999999 999999 999999 999999 999999 999999 999999 999999 999999 1032 0 999999 999999 999999 999999 999999 999999 999999 999999 999999 999999 999999 999999 999999 999999 999999 999999 999999 999999 -1000 999999 999999 999999 999999 999999 999999 999999 999999 
999999 999999 999999 999999 999999 999999 999999 999999 999999 999999 999999 999999 999999 999999 999999 0 1034 999999 999999 999999 999999 999999 999999 999999 999999 999999 999999 999999 999999 999999 999999 999999 999999 -1000 999999 999999 999999 999999 999999 999999 
999999 999999 999999 999999 999999 999999 999999 999999 999999 999999 999999 999999 999999 1043 0 999999 999999 999999 999999 999999 999999 999999 999999 999999 999999 999999 999999 999999 999999 999999 999999 999999 1022 999999 999999 999999 999999 999999 999999 999999 
999999 999999 999999 999999 999999 999999 999999 999999 999999 999999 999999 999999 999999 999999 999999 999999 999999 0 1032 999999 999999 999999 999999 999999 999999 999999 999999 999999 999999 999999 999999 999999 999999 999999 1040 999999 999999 999999 999999 999999 
999999 999999 999999 999999 999999 999999 999999 999999 999999 999999 999999 999999 999999 999999 999999 -1000 0 999999 999999 999999 999999 999999 999999 999999 999999 999999 999999 999999 999999 999999 999999 999999 999999 1045 999999 999999 999999 999999 999999 999999 
999999 999999 999999 999999 999999 999999 999999 999999 999999 999999 999999 999999 999999 999999 999999 999999 999999 999999 999999 0 1028 999999 999999 999999 999999 999999 999999 999999 999999 999999 999999 999999 999999 999999 999999 1021 999999 999999 999999 999999 
999999 999999 999999 999999 999999 999999 999999 999999 999999 999999 999999 999999 999999 999999 999999 999999 999999 1032 0 999999 999999 999999 999999 999999 999999 999999 999999 999999 999999 999999 999999 999999 999999 999999 -1000 999999 999999 999999 999999 999999 
999999 999999 999999 999999 999999 999999 999999 999999 999999 999999 999999 999999 999999 999999 999999 999999 999999 999999 999999 999999 999999 0 1013 999999 999999 999999 999999 999999 999999 999999 999999 999999 999999 999999 999999 999999 1028 999999 999999 999999 
999999 999999 999999 999999 999999 999999 999999 999999 999999 999999 999999 999999 999999 999999 999999 999999 999999 999999 999999 1028 0 999999 999999 999999 999999 999999 999999 999999 999999 999999 999999 999999 999999 999999 999999 -1000 999999 999999 999999 999999 
999999 999999 999999 999999 999999 999999 999999 999999 999999 999999 999999 999999 999999 999999 999999 999999 999999 999999 999999 999999 999999 999999 999999 0 1037 999999 999999 999999 999999 999999 999999 999999 999999 999999 999999 999999 999999 999999 999999 999999 
999999 999999 999999 999999 999999 999999 999999 999999 999999 999999 999999 999999 999999 999999 999999 999999 999999 999999 999999 999999 999999 1013 0 999999 999999 999999 999999 999999 999999 999999 999999 999999 999999 999999 999999 999999 1029 999999 999999 999999 
999999 999999 999999 999999 999999 999999 999999 999999 999999 999999 999999 999999 999999 999999 999999 999999 999999 999999 999999 999999 999999 999999 999999 999999 999999 0 1021 999999 999999 999999 999999 999999 999999 999999 999999 999999 999999 999999 -1000 999999 
999999 999999 999999 999999 999999 999999 999999 999999 999999 999999 999999 999999 999999 999999 999999 999999 999999 999999 999999 999999 999999 999999 999999 1037 0 999999 999999 999999 999999 999999 999999 999999 999999 999999 999999 999999 999999 1032 999999 999999 
999999 999999 999999 999999 999999 999999 999999 999999 999999 999999 999999 999999 999999 999999 999999 999999 999999 999999 999999 999999 999999 999999 999999 999999 999999 999999 999999 0 1015 999999 999999 999999 999999 999999 999999 999999 999999 999999 999999 -1000 
999999 999999 999999 999999 999999 999999 999999 999999 999999 999999 999999 999999 999999 999999 999999 999999 999999 999999 999999 999999 999999 999999 999999 999999 999999 1021 0 999999 999999 999999 999999 999999 999999 999999 999999 999999 999999 999999 1027 999999 
999999 999999 999999 999999 999999 999999 999999 999999 999999 999999 1015 999999 999999 999999 999999 999999 999999 999999 999999 999999 999999 999999 999999 999999 999999 999999 999999 999999 999999 0 1034 999999 999999 999999 999999 999999 999999 999999 999999 999999 
999999 999999 999999 999999 999999 999999 999999 999999 999999 999999 999999 999999 999999 999999 999999 999999 999999 999999 999999 999999 999999 999999 999999 999999 999999 999999 999999 -1000 0 999999 999999 999999 999999 999999 999999 999999 999999 999999 999999 1034 
0 0 0 0 0 0 0 0 0 0 999999 999999 999999 999999 999999 999999 999999 999999 999999 999999 999999 999999 999999 999999 999999 999999 999999 999999 999999 999999 0 999999 999999 999999 999999 999999 999999 999999 999999 999999 
0 0 0 0 0 0 0 0 0 0 999999 999999 999999 999999 999999 999999 999999 999999 999999 999999 999999 999999 999999 999999 999999 999999 999999 999999 999999 999999 999999 0 999999 999999 999999 999999 999999 999999 999999 999999 
0 0 0 0 0 0 0 0 0 0 999999 999999 999999 999999 999999 999999 999999 999999 999999 999999 999999 999999 999999 999999 999999 999999 999999 999999 999999 999999 999999 999999 0 999999 999999 999999 999999 999999 999999 999999 
0 0 0 0 0 0 0 0 0 0 999999 999999 999999 999999 999999 999999 999999 999999 999999 999999 999999 999999 999999 999999 999999 999999 999999 999999 999999 999999 999999 999999 999999 0 999999 999999 999999 999999 999999 999999 
0 0 0 0 0 0 0 0 0 0 999999 999999 999999 999999 999999 999999 999999 999999 999999 999999 999999 999999 999999 999999 999999 999999 999999 999999 999999 999999 999999 999999 999999 999999 0 999999 999999 999999 999999 999999 
0 0 0 0 0 0 0 0 0 0 999999 999999 999999 999999 999999 999999 999999 999999 999999 999999 999999 999999 999999 999999 999999 999999 999999 999999 999999 999999 999999 999999 999999 999999 999999 0 999999 999999 999999 999999 
0 0 0 0 0 0 0 0 0 0 999999 999999 999999 999999 999999 999999 999999 999999 999999 999999 999999 999999 999999 999999 999999 999999 999999 999999 999999 999999 999999 999999 999999 999999 999999 999999 0 999999 999999 999999 
0 0 0 0 0 0 0 0 0 0 999999 999999 999999 999999 999999 999999 999999 999999 999999 999999 999999 999999 999999 999999 999999 999999 999999 999999 999999 999999 999999 999999 999999 999999 999999 999999 999999 0 999999 999999 
0 0 0 0 0 0 0 0 0 0 999999 999999 999999 999999 999999 999999 999999 999999 999999 999999 999999 999999 999999 999999 999999 999999 999999 999999 999999 999999 999999 999999 999999 999999 999999 999999 999999 999999 0 999999 
0 0 0 0 0 0 0 0 0 0 999999 999999 999999 999999 999999 999999 999999 999999 999999 999999 999999 999999 999999 999999 999999 999999 999999 999999 999999 999999 999999 999999 999999 999999 999999 999999 999999 999999 999999 0 
